 C  O                                   
   1.00000000000000     
     6.0000000000000000    0.0000000000000000    0.0000000000000000
     0.0000000000000000    6.0000000000000000    0.0000000000000000
     0.0000000000000000    0.0000000000000000    6.0000000000000000
   C    O 
     1     1
Direct
  0.3999999999999986  0.5000000000000000  0.5000000000000000
  0.6000000000000014  0.5000000000000000  0.5000000000000000
 
  0.00000000E+00  0.00000000E+00  0.00000000E+00
  0.00000000E+00  0.00000000E+00  0.00000000E+00
