 C  O 
 1.0000000000000000
     6.0000000000000000    0.0000000000000000    0.0000000000000000
     0.0000000000000000    6.0000000000000000    0.0000000000000000
     0.0000000000000000    0.0000000000000000    6.0000000000000000
   1   1
Cartesian
  2.4000000000000004  3.0000000000000000  3.0000000000000000
  3.5999999999999996  3.0000000000000000  3.0000000000000000
