!   File created by the GAMESS Input Deck Generator Plugin for Avogadro
 $BASIS GBASIS=N31 NGAUSS=6 $END
 $CONTRL RUNTYP=ENERGY DFTTYP=SLATER $END

 $DATA 
Title
C1
Ar    18.0    -3.86612     1.03789     0.00000
 $END
