INCAR created by Atomic Simulation Environment
 LWAVE = .FALSE.
 ENCUT = 350
 SIGMA = 0.01
 NBANDS = 8
 LCHARG = .FALSE.
 ISMEAR = 1
