 C  O 
 1.0000000000000000
    10.0000000000000000    0.0000000000000000    0.0000000000000000
     0.0000000000000000   10.0000000000000000    0.0000000000000000
     0.0000000000000000    0.0000000000000000   10.0000000000000000
   1   1
Cartesian
  0.0000000000000000  0.0000000000000000  0.0000000000000000
  1.1000000000000001  0.0000000000000000  0.0000000000000000
