%chk=butadiene.chk
%mem=6MW
%nproc=1
# opt freq b3lyp/6-31g(d)

butadiene optimization

0 1
 C
 C                  1              B1
 H                  1              B2    2              A1
 H                  1              B3    2              A2    3              D1
 H                  2              B4    1              A3    4              D2
 C                  2              B5    1              A4    4              D3
 C                  6              B6    2              A5    1              D4
 H                  6              B7    2              A6    1              D5
 H                  7              B8    6              A7    2              D6
 H                  7              B9    6              A8    2              D7

   B1             1.32591600
   B2             1.09826653
   B3             1.09826310
   B4             1.09826653
   B5             1.54000000
   B6             1.32591600
   B7             1.09826310
   B8             1.09826653
   B9             1.09826310
   A1           122.71594253
   A2           122.71797992
   A3           122.71594252
   A4           122.71797992
   A5           122.71594253
   A6           114.56607753
   A7           122.71594252
   A8           122.71797992
   D1           180.00000000
   D2            -0.00000000
   D3          -180.00000000
   D4            -0.00000000
   D5          -180.00000000
   D6          -180.00000000
   D7             0.00000000

