 C  O 
 1.0000000000000000
     8.0000000000000000    0.0000000000000000    0.0000000000000000
     0.0000000000000000    8.0000000000000000    0.0000000000000000
     0.0000000000000000    0.0000000000000000    8.0000000000000000
   1   1
Cartesian
  3.4000000000000004  4.0000000000000000  4.0000000000000000
  4.5999999999999996  4.0000000000000000  4.0000000000000000
