12x12x12 Ang. cell
 12.
 1.0 0.0 0.0
 0.0 1.0 0.0
 0.0 0.0 1.0
 1
direct
 0.5 0.5 0.5
