%chk=C2H4F2-ts.chk
%mem=6MW
%nproc=1
#P HF/3-21G freq guess=read geom=check

C2H4F2 transition state vib. spectrum 

0   1
