%chk=C2H4F2-gdiis.chk
%mem=6MW
%nproc=1
#P HF/3-21G Geom=Checkpoint Guess=Read Frequency

gauche-C2H4F2 

0   1
