%chk=ts-C2H4F2-G2.chk
%mem=6MW
%nproc=1
#N G2=(StartMP2) opt=ts

C2H4F2 transition state search 

0   1
