 $BASIS GBASIS=PC1 $END
 $CONTRL COORD=ZMT ISPHER=1 RUNTYP=ENERGY DFTTYP=PBE $END

 $DATA 
Title
Cnv 2

S    
O 1 1.30 
O 1 1.30 2 100.0
 $END