7x7x7 title card
0
Monkhorst-Pack
7  7  7
0. 0. 0.
