Mg O                           
 4.2112
     1.0000000000000000     .0000000000000000     .0000000000000000
      .0000000000000000    1.0000000000000000     .0000000000000000
      .0000000000000000     .0000000000000000    1.0000000000000000
   4   4
Direct
   .5000000000000000   .5000000000000000   .5000000000000000
   .5000000000000000   .0000000000000000   .0000000000000000
   .0000000000000000   .5000000000000000   .0000000000000000
   .0000000000000000   .0000000000000000   .5000000000000000
   .0000000000000000   .0000000000000000   .0000000000000000
   .5000000000000000   .0000000000000000   .5000000000000000
   .0000000000000000   .5000000000000000   .5000000000000000
   .5000000000000000   .5000000000000000   .0000000000000000
