INCAR created by Atomic Simulation Environment
 LWAVE = .FALSE.
 IBRION = 2
 ENCUT = 350
 SIGMA = 0.01
 NSW = 20
 NBANDS = 8
 LCHARG = .FALSE.
 ISMEAR = 1
