!   File created by the GAMESS Input Deck Generator Plugin for Avogadro
 $BASIS GBASIS=PC1 $END
 $CONTRL COORD=ZMT ISPHER=1 RUNTYP=OPTIMIZE DFTTYP=PBE $END

 $DATA 
Title
Cnv 2

C    
O 1 rso 
O 1 rso 2 ang

rso = 1.15
ang = 178
 $END

