 $BASIS GBASIS=STO NGAUSS=3 $END
 $CONTRL SCFTYP=RHF RUNTYP=ENERGY ICHARG=1 MULT=1 $END
 $DATA 
Title
C1
H     1.0     0.   0.  0.
He    2.0     0.   0.  2.1
 $END
