 $BASIS GBASIS=STO NGAUSS=3 $END
 $CONTRL SCFTYP=UHF RUNTYP=ENERGY ICHARG=1 MULT=2 $END
 $DATA 
Title
C1
He    2.0     0.   0.  0.0
 $END
