%chk=CH3OH-631g.chk
%mem=6MW
%nproc=1
#P HF/6-31G(d) freq=analytic geom=check guess=Read

CH3OH frequency

0   1
