10x10x10
0
Monkhorst-Pack
10 10 10
0. 0. 0.
