 $BASIS GBASIS=STO NGAUSS=3 $END
 $CONTRL SCFTYP=UHF RUNTYP=ENERGY ICHARG=1 MULT=2 $END
 $GUESS GUESS=HCORE $END
 $DATA 
Title
C1
H     1.0     0.   0.  0.
H     1.0     0.   0.  1.8
 $END
