Pure FCC metal                          
    4.176000000000000     
     0.9530628875089018    0.0000000000000000    0.0000000000000000
     0.0000000000000000    0.9530628875089018    0.0000000000000000
     0.0000000000000000    0.0000000000000000    0.9115337193167750
   2   2
Direct
  0.0000000000000000  0.0000000000000000  0.0000000000000000
  0.5000000000000000  0.5000000000000000  0.0000000000000000
  0.5000000000000000  0.0000000000000000  0.5000000000000000
  0.0000000000000000  0.5000000000000000  0.5000000000000000

  0.00000000E+00  0.00000000E+00  0.00000000E+00
  0.00000000E+00  0.00000000E+00  0.00000000E+00
  0.00000000E+00  0.00000000E+00  0.00000000E+00
  0.00000000E+00  0.00000000E+00  0.00000000E+00
