Pure FCC metal                          
    4.176000000000000     
     0.9702587433822142    0.0000000000000000    0.0000000000000000
     0.0000000000000000    0.9702587433822142    0.0000000000000000
     0.0000000000000000    0.0000000000000000    0.9702587433822142
   3   1
Direct
  0.0000000000000000  0.0000000000000000  0.0000000000000000
  0.5000000000000000  0.5000000000000000  0.0000000000000000
  0.5000000000000000  0.0000000000000000  0.5000000000000000
  0.0000000000000000  0.5000000000000000  0.5000000000000000

  0.00000000E+00  0.00000000E+00  0.00000000E+00
  0.00000000E+00  0.00000000E+00  0.00000000E+00
  0.00000000E+00  0.00000000E+00  0.00000000E+00
  0.00000000E+00  0.00000000E+00  0.00000000E+00
