6x6x6 title card
0
Monkhorst-Pack
6  6  6
0. 0. 0.
