Pure FCC metal                          
    4.176000000000000     
     0.9713685422691224    0.0000000000000000    0.0000000000000000
     0.0000000000000000    0.9713685422691224    0.0000000000000000
     0.0000000000000000    0.0000000000000000    0.9713685422691224
   3   1
Direct
  0.0000000000000000  0.0000000000000000  0.0000000000000000
  0.5000000000000000  0.5000000000000000  0.0000000000000000
  0.5000000000000000  0.0000000000000000  0.5000000000000000
  0.0000000000000000  0.5000000000000000  0.5000000000000000

  0.00000000E+00  0.00000000E+00  0.00000000E+00
  0.00000000E+00  0.00000000E+00  0.00000000E+00
  0.00000000E+00  0.00000000E+00  0.00000000E+00
  0.00000000E+00  0.00000000E+00  0.00000000E+00
