Pt(111) 3 layer slab, rt3 x rt3         
   5.63533800000000     
     0.8660254037839999   -0.5000000000000000    0.0000000000000000
     0.0000000000000000    1.0000000000000000    0.0000000000000000
     0.0000000000000000    0.0000000000000000    1.6499999999999997
   Pt
  12
Selective dynamics
Direct
  0.3333333333333357  0.6666666666666643  0.0000000000000000   F   F   F
  0.3333333333333357  0.1666666666666643  0.0000000000000000   F   F   F
  0.8333333333333357  0.1666666666666643  0.0000000000000000   F   F   F
  0.8333333333333357  0.6666666666666643  0.0000000000000000   F   F   F
  0.0000000000000000  0.5000000000000000  0.2489572263219983   T   T   T
  0.0000000000000000  0.0000000000000000  0.2489572263219983   T   T   T
  0.5000000000000000  0.5000000000000000  0.2489572263219983   T   T   T
  0.5000000000000000  0.0000000000000000  0.2489572263219983   T   T   T
  0.1666666666666643  0.3333333333333357  0.4980228127280029   T   T   T
  0.6666666666666643  0.3333333333333357  0.4980228127280029   T   T   T
  0.6666666666666643  0.8333333333333357  0.4980228127280029   T   T   T
  0.1666666666666643  0.8333333333333357  0.4980228127280029   T   T   T
 
  0.00000000E+00  0.00000000E+00  0.00000000E+00
  0.00000000E+00  0.00000000E+00  0.00000000E+00
  0.00000000E+00  0.00000000E+00  0.00000000E+00
  0.00000000E+00  0.00000000E+00  0.00000000E+00
  0.00000000E+00  0.00000000E+00  0.00000000E+00
  0.00000000E+00  0.00000000E+00  0.00000000E+00
  0.00000000E+00  0.00000000E+00  0.00000000E+00
  0.00000000E+00  0.00000000E+00  0.00000000E+00
  0.00000000E+00  0.00000000E+00  0.00000000E+00
  0.00000000E+00  0.00000000E+00  0.00000000E+00
  0.00000000E+00  0.00000000E+00  0.00000000E+00
  0.00000000E+00  0.00000000E+00  0.00000000E+00
