System = Pt(111)
NWRITE = 1
LWAVE =  .FALSE.  ! write WAVECAR?
LCHARG = .TRUE.   ! write CHGCAR?
LVTOT =  .TRUE.   ! write LOCPOT?

Electronic relaxation
# IALGO  = 48    ! 8: CG, 48: DIIS algorithm for electrons
ALGO   = Fast
ISMEAR = 0     ! 0: Gaussian, electron smearing
SIGMA  = 0.100
PREC   = normal
ISTART = 0
EDIFF  = 1e-4
ISPIN  = 1     ! polarization?
ENCUT  = 250
LORBIT  = 11

Ionic relaxation
NSW    = 0     ! # of steps in optimization (default 0!)
ISIF   = 0     ! 0: relax ions, 1,2:relax ions,calc stresses, 3:relax ion+cell
IBRION = 1     ! 1: quasi-NR, 2:CG algorithm for ions
NFREE  = 10    ! number of DIIS vectors to save
POTIM  = 0.35   ! reduce trial step in optimization
EDIFFG = 1e-4

Parallel
NPAR   = 1
LPLANE = .T.
NSIM = 10
