Pt(111) 3 layer slab, rt3 x rt3
 5.63533799999999996
      .8660254037839999    -.5000000000000000     .0000000000000000
      .0000000000000000    1.0000000000000000     .0000000000000000
      .0000000000000000     .0000000000000000    1.6500000000000000
  12
Selective dynamics
Direct
   .3333333333333357   .6666666666666643   .0000000000000000   F   F   F
   .3333333333333357   .1666666666666643   .0000000000000000   F   F   F
   .8333333333333357   .1666666666666643   .0000000000000000   F   F   F
   .8333333333333357   .6666666666666643   .0000000000000000   F   F   F
   .0000000000000000   .5000000000000000   0.248957226322     T   T   T
   .0000000000000000   .0000000000000000   0.248957226322     T   T   T
   .5000000000000000   .5000000000000000   0.248957226322     T   T   T
   .5000000000000000   .0000000000000000   0.248957226322     T   T   T
   .1666666666666643   .3333333333333357   0.498022812728     T   T   T
   .6666666666666643   .3333333333333357   0.498022812728     T   T   T
   .6666666666666643   .8333333333333357   0.498022812728     T   T   T
   .1666666666666643   .8333333333333357   0.498022812728     T   T   T
       
       
       
       
       
       
       
