Pure FCC metal                          
    3.800000000000000     
     0.9971979888395047    0.0000000000000000    0.0000000000000000
     0.0000000000000000    0.9971979888395047    0.0000000000000000
     0.0000000000000000    0.0000000000000000    0.9971979888395047
   1   3
Direct
  0.0000000000000000  0.0000000000000000  0.0000000000000000
  0.5000000000000000  0.5000000000000000  0.0000000000000000
  0.5000000000000000  0.0000000000000000  0.5000000000000000
  0.0000000000000000  0.5000000000000000  0.5000000000000000

  0.00000000E+00  0.00000000E+00  0.00000000E+00
  0.00000000E+00  0.00000000E+00  0.00000000E+00
  0.00000000E+00  0.00000000E+00  0.00000000E+00
  0.00000000E+00  0.00000000E+00  0.00000000E+00
