 C  O                                   
   1.00000000000000     
     5.0000000000000000    0.0000000000000000    0.0000000000000000
     0.0000000000000000    5.0000000000000000    0.0000000000000000
     0.0000000000000000    0.0000000000000000    5.0000000000000000
   C    O 
     1     1
Direct
  0.3800000000000026  0.5000000000000000  0.5000000000000000
  0.6199999999999974  0.5000000000000000  0.5000000000000000
 
  0.00000000E+00  0.00000000E+00  0.00000000E+00
  0.00000000E+00  0.00000000E+00  0.00000000E+00
