 C  O 
 1.0000000000000000
     5.0000000000000000    0.0000000000000000    0.0000000000000000
     0.0000000000000000    5.0000000000000000    0.0000000000000000
     0.0000000000000000    0.0000000000000000    5.0000000000000000
   1   1
Cartesian
  1.9000000000000001  2.5000000000000000  2.5000000000000000
  3.0999999999999996  2.5000000000000000  2.5000000000000000
