SYSTEM = LaCoO3
ISTART = 0
ICHARG = 2
INIWAV = 1
NWRITE = 1
ISPIN = 2
LORBIT= 10
LWAVE = .FALSE.
ENCUT = 400
PREC = Accurate
ISMEAR = 0
SIGMA = 0.02
NELM = 150
IALGO = 38
IBRION = -1
NSW = 0
! EDIFFG = -0.02
