H                     
 1.00
 18.00000  0.000000  0.000000
 0.000000  18.00000  0.000000
 0.000000  0.000000  18.00000
 1
Selective dynamics
Direct
0.500000  0.500000  0.500000 T T T

