10x10x10 title card
0
Monkhorst-Pack
10 10 10
0. 0. 0.
