Pure FCC metal                                     
 4.176
 0. .5  .5
 .5  0  .5
 .5 .5  0.
   1
Direct
   .0000000000000000   .0000000000000000   .0000000000000000
