Pure FCC metal                                     
 4.176
 1.  0.  0.
 0.  1.  0.
 0.  0.  1.
   4
Direct
   .0000000000000000   .0000000000000000   .0000000000000000
   .5000000000000000   .5000000000000000   .0000000000000000
   .5000000000000000   .0000000000000000   .5000000000000000
   .0000000000000000   .5000000000000000   .5000000000000000

