SYSTEM = H chain
ISTART = 0
ICHARG = 2
INIWAV = 1
NWRITE = 1
ISPIN = 1
LORBIT= 10
LWAVE = .FALSE.
ENCUT = 250
PREC = Accurate
ISMEAR = 0
SIGMA = 0.1
ALGO = fast
IBRION = -1
NSW = 0
! EDIFFG = -0.02
