H                     
 1.00
 0.900000  0.000000  0.000000
 0.000000  10.00000  0.000000
 0.000000  0.000000  10.00000
 1
Selective dynamics
Direct
0.500000  0.500000  0.500000 T T T

