 $CONTRL SCFTYP=RHF DFTTYP=PBE RUNTYP=OPTIMIZE COORD=CART NZVAR=18 ISPHER=1 $END
 $BASIS GBASIS=PCseg-0 $END
 $ZMAT DLC=.TRUE. AUTO=.TRUE. $END
 $DATA
FCH2CH2F cartesian optimization calculation
C1
 C           6.0  -0.6825859983  -0.6052590209   0.3379509790
 C           6.0   0.6825995662  -0.6055753182  -0.3374024974
 F           9.0   1.4628498216   0.4896405340   0.1849444048
 H           1.0   1.2186619285  -1.5559000964  -0.1370893512
 H           1.0   0.5547773061  -0.4649563102  -1.4280795562
 F           9.0  -1.4628577245   0.4894871378  -0.1853877322
 H           1.0  -1.2186896005  -1.5557398042   0.1384984228
 H           1.0  -0.5547622072  -0.4636360628   1.4284969260
 $END

