10 Ang. cell, diagonal orientation      
   10.0000000000000     
     1.0000000000000000    0.0000000000000000    0.0000000000000000
     0.0000000000000000    1.0000000000000000    0.0000000000000000
     0.0000000000000000    0.0000000000000000    1.0000000000000000
   2
Direct
  0.5000000000000000  0.5000000000000000  0.5609999999999999
  0.5000000000000000  0.5000000000000000  0.4390000000000001
 
  0.00000000E+00  0.00000000E+00  0.00000000E+00
  0.00000000E+00  0.00000000E+00  0.00000000E+00
