10 Ang. cell, diagonal orientation
 10.
 1.0 0.0 0.0
 0.0 1.0 0.0
 0.0 0.0 1.0
2
cartesian
     .5  .5 .561
     .5  .5 .439 
