bulk oxygen vacancy                     
   3.82415110000000     
     2.0000000000000000    0.0000000000000000    0.0000000000000000
     0.0000000000000000    2.0000000000000000    0.0000000000000000
     0.0000000000000000    0.0000000000000000    2.0000000000000000
   La   Co   O 
     8     8    24
Selective dynamics
Direct
  0.0003013270061261  0.0000000000000000  0.0000000000000000   T   T   T
  0.5016479172484640  0.0000000000000000  0.0000000000000000   T   T   T
  0.0003412645534841  0.5000000000000000  0.0000000000000000   T   T   T
  0.0003412645534841  0.0000000000000000  0.5000000000000000   T   T   T
  0.5003766119147457  0.5000000000000000  0.0000000000000000   T   T   T
  0.5003766119147457  0.0000000000000000  0.5000000000000000   T   T   T
  0.0008356307613562  0.5000000000000000  0.5000000000000000   T   T   T
  0.5001946167275446  0.5000000000000000  0.5000000000000000   T   T   T
  0.2502999486147477  0.2499506600827349  0.2499506600827349   T   T   T
  0.2502999486147477  0.2499506600827349  0.7500493399172653   T   T   T
  0.2502999486147477  0.7500493399172653  0.2499506600827349   T   T   T
  0.7502959164003696  0.2500456811109268  0.2500456811109268   T   T   T
  0.7502959164003696  0.7499543188890730  0.2500456811109268   T   T   T
  0.7502959164003696  0.2500456811109268  0.7499543188890730   T   T   T
  0.2502999486147477  0.7500493399172653  0.7500493399172653   T   T   T
  0.7502959164003696  0.7499543188890730  0.7499543188890730   T   T   T
  0.7499146949546011  0.2493820637943787  0.0000000000000000   T   T   T
  0.2497635998852818  0.7493600521799443  0.0000000000000000   T   T   T
  0.2497635998852818  0.2506399478200560  0.0000000000000000   T   T   T
  0.7499146949546011  0.7506179362056213  0.0000000000000000   T   T   T
  0.0001855995314221  0.2500701648205269  0.2500701648205269   T   T   T
  0.2497635998852818  0.0000000000000000  0.2506399478200560   T   T   T
  0.5003843862480483  0.2499144208216688  0.2499144208216688   T   T   T
  0.2503551537641382  0.5000000000000000  0.2504884456020450   T   T   T
  0.0001855995314221  0.7499298351794731  0.2500701648205269   T   T   T
  0.7499146949546011  0.0000000000000000  0.2493820637943787   T   T   T
  0.7501968894314047  0.5000000000000000  0.2495256333712912   T   T   T
  0.5003843862480483  0.7500855791783313  0.2499144208216688   T   T   T
  0.7501968894314047  0.2495256333712912  0.5000000000000000   T   T   T
  0.2503551537641382  0.7495115543979549  0.5000000000000000   T   T   T
  0.2503551537641382  0.2504884456020450  0.5000000000000000   T   T   T
  0.7501968894314047  0.7504743666287087  0.5000000000000000   T   T   T
  0.0001855995314221  0.2500701648205269  0.7499298351794731   T   T   T
  0.2497635998852818  0.0000000000000000  0.7493600521799443   T   T   T
  0.5003843862480483  0.2499144208216688  0.7500855791783313   T   T   T
  0.2503551537641382  0.5000000000000000  0.7495115543979549   T   T   T
  0.0001855995314221  0.7499298351794731  0.7499298351794731   T   T   T
  0.7499146949546011  0.0000000000000000  0.7506179362056213   T   T   T
  0.7501968894314047  0.5000000000000000  0.7504743666287087   T   T   T
  0.5003843862480483  0.7500855791783313  0.7500855791783313   T   T   T
 
  0.00000000E+00  0.00000000E+00  0.00000000E+00
  0.00000000E+00  0.00000000E+00  0.00000000E+00
  0.00000000E+00  0.00000000E+00  0.00000000E+00
  0.00000000E+00  0.00000000E+00  0.00000000E+00
  0.00000000E+00  0.00000000E+00  0.00000000E+00
  0.00000000E+00  0.00000000E+00  0.00000000E+00
  0.00000000E+00  0.00000000E+00  0.00000000E+00
  0.00000000E+00  0.00000000E+00  0.00000000E+00
  0.00000000E+00  0.00000000E+00  0.00000000E+00
  0.00000000E+00  0.00000000E+00  0.00000000E+00
  0.00000000E+00  0.00000000E+00  0.00000000E+00
  0.00000000E+00  0.00000000E+00  0.00000000E+00
  0.00000000E+00  0.00000000E+00  0.00000000E+00
  0.00000000E+00  0.00000000E+00  0.00000000E+00
  0.00000000E+00  0.00000000E+00  0.00000000E+00
  0.00000000E+00  0.00000000E+00  0.00000000E+00
  0.00000000E+00  0.00000000E+00  0.00000000E+00
  0.00000000E+00  0.00000000E+00  0.00000000E+00
  0.00000000E+00  0.00000000E+00  0.00000000E+00
  0.00000000E+00  0.00000000E+00  0.00000000E+00
  0.00000000E+00  0.00000000E+00  0.00000000E+00
  0.00000000E+00  0.00000000E+00  0.00000000E+00
  0.00000000E+00  0.00000000E+00  0.00000000E+00
  0.00000000E+00  0.00000000E+00  0.00000000E+00
  0.00000000E+00  0.00000000E+00  0.00000000E+00
  0.00000000E+00  0.00000000E+00  0.00000000E+00
  0.00000000E+00  0.00000000E+00  0.00000000E+00
  0.00000000E+00  0.00000000E+00  0.00000000E+00
  0.00000000E+00  0.00000000E+00  0.00000000E+00
  0.00000000E+00  0.00000000E+00  0.00000000E+00
  0.00000000E+00  0.00000000E+00  0.00000000E+00
  0.00000000E+00  0.00000000E+00  0.00000000E+00
  0.00000000E+00  0.00000000E+00  0.00000000E+00
  0.00000000E+00  0.00000000E+00  0.00000000E+00
  0.00000000E+00  0.00000000E+00  0.00000000E+00
  0.00000000E+00  0.00000000E+00  0.00000000E+00
  0.00000000E+00  0.00000000E+00  0.00000000E+00
  0.00000000E+00  0.00000000E+00  0.00000000E+00
  0.00000000E+00  0.00000000E+00  0.00000000E+00
  0.00000000E+00  0.00000000E+00  0.00000000E+00
