 $CONTRL SCFTYP=RHF DFTTYP=PBE RUNTYP=IRC COORD=UNIQUE ISPHER=1 $END
 $BASIS GBASIS=PCseg-1 $END
 $IRC PACE=LINEAR STABLZ=.TRUE. NPOINT=10 SADDLE=.T. FORWRD=.T. $END
 $FORCE HESS=READ $END
 $DATA
H2ON2                                                                           
C1       1
 N           7.0   0.9233485039  -0.2399318160   0.0736256617
 N           7.0  -0.0272197420   0.6088503884  -0.0717581187
 O           8.0  -1.0933769256  -0.1081391759   0.0571959479
 H           1.0  -0.1059622027  -1.0519964547   0.2191639975
 H           1.0   1.8912457716   0.1158820221   0.0085037392
 $END      
 $HESS
ENERGY IS     -185.5854194050 E(NUC) IS       73.0033764178
 1  1 8.43287379E-01-4.86363743E-02 1.07610516E-04-3.07227749E-01 1.52208588E-01
 1  2-1.73518217E-07-2.17358214E-01 6.47698005E-02 2.77392926E-06 8.17895263E-03
 1  3-1.86673169E-02-2.51376499E-06-3.26893247E-01-1.49673987E-01-1.06407498E-04
 2  1-4.86363743E-02 3.87862774E-01 3.08026584E-05 1.71630567E-01-2.92530888E-01
 2  2-2.27188287E-05-4.91718622E-02 5.95241001E-02 5.53534034E-06 2.46499489E-02
 2  3-3.09394031E-02 1.18125905E-05-9.84750550E-02-1.23921770E-01-2.59833249E-05
 3  1 1.07610516E-04 3.08026584E-05 4.67125080E-02-1.86580483E-05-2.13631240E-07
 3  2-3.46046208E-02-4.65412000E-06 8.51965572E-06 3.02899045E-02 1.02044406E-05
 3  3 3.79254009E-06-3.46595133E-02-9.44547152E-05-4.29165917E-05-7.73983185E-03
 4  1-3.07227749E-01 1.71630567E-01-1.86580483E-05 5.17848789E-01-3.55175251E-02
 4  2-6.18184247E-06-2.80901045E-01-1.34259041E-01 5.24569444E-06 8.73948084E-02
 4  3-1.28534872E-02 5.01586904E-06-1.71158190E-02 1.09946332E-02 1.17183142E-05
 5  1 1.52208588E-01-2.92530888E-01-2.13631240E-07-3.55175251E-02 6.02706813E-01
 5  2 7.50953590E-06-9.39616477E-02-2.06245599E-01-3.08275589E-06 5.16957378E-03
 5  3-1.13628647E-01 3.45366097E-06-2.79005588E-02 9.69897667E-03-8.35082194E-06
 6  1-1.73518217E-07-2.27188287E-05-3.46046208E-02-6.18184247E-06 7.50953590E-06
 6  2 5.87875348E-02 3.33166826E-06 3.75813132E-06-5.76303885E-02 5.97285443E-06
 6  3 3.64700856E-06 4.64098715E-02-2.91967429E-06 7.78435353E-06-1.29630917E-02
 7  1-2.17358214E-01-4.91718622E-02-4.65412000E-06-2.80901045E-01-9.39616477E-02
 7  2 3.33166826E-06 5.06783088E-01 1.42998490E-01-4.62911524E-06-2.22932675E-03
 7  3 2.34377990E-03 1.72482203E-06-6.28885588E-03-2.20581219E-03 6.19870445E-06
 8  1 6.47698005E-02 5.95241001E-02 8.51965572E-06-1.34259041E-01-2.06245599E-01
 8  2 3.75813132E-06 1.42998490E-01 1.24300539E-01-1.14289730E-06-7.58628510E-02
 8  3 4.28281830E-03-4.36597697E-06 2.35423992E-03 1.81422698E-02-5.77540122E-06
 9  1 2.77392926E-06 5.53534034E-06 3.02899045E-02 5.24569444E-06-3.08275589E-06
 9  2-5.76303885E-02-4.62911524E-06-1.14289730E-06 5.70051819E-02-7.84352823E-07
 9  3 2.25314828E-07-4.44908522E-02-2.64464802E-06-1.51127545E-06 1.48280469E-02
10  1 8.17895263E-03 2.46499489E-02 1.02044406E-05 8.73948084E-02 5.16957378E-03
10  2 5.97285443E-06-2.22932675E-03-7.58628510E-02-7.84352823E-07-8.76189417E-02
10  3 2.40174942E-02-5.65674300E-06-5.72268254E-03 2.20265423E-02-1.08166223E-05
11  1-1.86673169E-02-3.09394031E-02 3.79254009E-06-1.28534872E-02-1.13628647E-01
11  2 3.64700856E-06 2.34377990E-03 4.28281830E-03 2.25314828E-07 2.40174942E-02
11  3 1.35908347E-01-7.49989794E-06 5.16190863E-03 4.37545205E-03-1.95440817E-07
12  1-2.51376499E-06 1.18125905E-05-3.46595133E-02 5.01586904E-06 3.45366097E-06
12  2 4.64098715E-02 1.72482203E-06-4.36597697E-06-4.44908522E-02-5.65674300E-06
12  3-7.49989794E-06 3.86947976E-02 1.43458166E-06-3.40948698E-06-5.95539887E-03
13  1-3.26893247E-01-9.84750550E-02-9.44547152E-05-1.71158190E-02-2.79005588E-02
13  2-2.91967429E-06-6.28885588E-03 2.35423992E-03-2.64464802E-06-5.72268254E-03
13  3 5.16190863E-03 1.43458166E-06 3.56026044E-01 1.18859951E-01 9.92632682E-05
14  1-1.49673987E-01-1.23921770E-01-4.29165917E-05 1.09946332E-02 9.69897667E-03
14  2 7.78435353E-06-2.20581219E-03 1.81422698E-02-1.51127545E-06 2.20265423E-02
14  3 4.37545205E-03-3.40948698E-06 1.18859951E-01 9.17069062E-02 4.03255409E-05
15  1-1.06407498E-04-2.59833249E-05-7.73983185E-03 1.17183142E-05-8.35082194E-06
15  2-1.29630917E-02 6.19870445E-06-5.77540122E-06 1.48280469E-02-1.08166223E-05
15  3-1.95440817E-07-5.95539887E-03 9.92632682E-05 4.03255409E-05 1.18317263E-02
 $END
