 $CONTRL SCFTYP=RHF RUNTYP=HESSIAN COORD=CART ISPHER=1 $END
 $BASIS GBASIS=PCseg-1 $END
 $DATA
H2ON2
C1 1
N 7 0.00000000 0.00000000 0.00000000
N 7 0.77327766 1.08425790 -0.22119328
O 8 1.83292400 0.33128540 -0.20770071
H 1 1.26485918 -0.47143106 -0.39117999
H 1 -0.97205675 0.36267089 0.03397806
 $END
