simple cubic                            
 4.21119999999999983
     1.0000000000000000     .0000000000000000     .0000000000000000
      .0000000000000000    1.0000000000000000     .0000000000000000
      .0000000000000000     .0000000000000000    2.0000000000000000
   4   4
Direct
   .5000000000000000   .5000000000000000   .25000000000000000
   .5000000000000000   .0000000000000000   .0000000000000000
   .0000000000000000   .5000000000000000   .0000000000000000
   .0000000000000000   .0000000000000000   .25000000000000000
   .0000000000000000   .0000000000000000   .0000000000000000
   .5000000000000000   .0000000000000000   .25000000000000000
   .0000000000000000   .5000000000000000   .25000000000000000
   .5000000000000000   .5000000000000000   .0000000000000000
 
   .00000000E+00   .00000000E+00   .00000000E+00
   .00000000E+00   .00000000E+00   .00000000E+00
   .00000000E+00   .00000000E+00   .00000000E+00
   .00000000E+00   .00000000E+00   .00000000E+00
   .00000000E+00   .00000000E+00   .00000000E+00
   .00000000E+00   .00000000E+00   .00000000E+00
   .00000000E+00   .00000000E+00   .00000000E+00
   .00000000E+00   .00000000E+00   .00000000E+00
