 $BASIS GBASIS=STO NGAUSS=3 $END
 $CONTRL SCFTYP=RHF RUNTYP=ENERGY ICHARG=0 MULT=1 $END
 $DATA 
Title
C1
He    2.0     0.   0.  0.
He    2.0     0.   0.  0.6
 $END
