 C  O 
 1.0000000000000000
     4.0000000000000000    0.0000000000000000    0.0000000000000000
     0.0000000000000000    4.0000000000000000    0.0000000000000000
     0.0000000000000000    0.0000000000000000    4.0000000000000000
   1   1
Cartesian
  1.3999999999999999  2.0000000000000000  2.0000000000000000
  2.5999999999999996  2.0000000000000000  2.0000000000000000
