 $CONTRL SCFTYP=RHF DFTTYP=PBE RUNTYP=OPTIMIZE COORD=ZMTMPC 
   NZVAR=39 ISPHER=1 $END
 $BASIS GBASIS=PCseg-0 $END
 $DATA
C5H10
C1
C 0.0000000 0 0.0000000 0 0.0000000 0 0 0 0
C 1.1026411 1 0.0000000 0 0.0000000 0 1 0 0
C 1.0662321 1 104.15463 1 0.0000000 0 2 1 0
C 1.1438482 1 103.19847 1 8.0000000 1 3 2 1
C 0.9850927 1 117.01267 1 -12.0000000 1 4 3 2
H 1.0900000 1 109.47122 1 110.00000 1 5 4 3
H 1.0900000 1 109.47122 1 -110.00000 1 5 4 3
H 1.0900000 1 109.47122 1 117.00000 1 4 3 2
H 1.0900000 1 109.47122 1 -123.00000 1 4 3 2
H 1.0900000 1 109.47122 1 120.00000 1 3 2 1
H 1.0900000 1 109.47122 1 -117.00000 1 3 2 1
H 1.0900000 1 109.47122 1 120.00000 1 2 1 5
H 1.0900000 1 109.47122 1 -120.00000 1 2 1 5
H 1.0900000 1 109.47122 1 120.00000 1 1 2 3
H 1.0900000 1 109.47122 1 -120.00000 1 1 2 3
 $END

