 $CONTRL SCFTYP=RHF DFTTYP=PBE RUNTYP=OPTIMIZE COORD=CART 
  NZVAR=39 ISPHER=1 $END
 $BASIS GBASIS=PCseg-0 $END
 $ZMAT DLC=.TRUE. AUTO=.TRUE. $END
 $DATA
C5H10
C1
 C           6.0  -0.1472815662  -1.1083439282  -0.0102112234
 C           6.0   1.0587973091  -0.4903704140   0.0247606262
 C           6.0   0.8099446581   0.8242131856  -0.0381902604
 C           6.0  -0.5589329493   0.9662874251   0.0404237700
 C           6.0  -1.1481453918  -0.1960808903  -0.0210642161
 H           1.0  -1.4970810069  -0.3965615859   0.9456390416
 H           1.0  -1.6003228574  -0.1804472703  -0.9760211999
 H           1.0  -0.7619507375   1.3475732621   0.9879214360
 H           1.0  -0.8930487149   1.3399727868  -0.8510752551
 H           1.0   1.1280657090   1.2249072831   0.8664068964
 H           1.0   1.1530382400   1.1209273296  -0.9857174691
 H           1.0   1.4614327091  -0.7302502418   0.9595907609
 H           1.0   1.5209480250  -0.7362379168  -0.8732379602
 H           1.0  -0.2024923345  -1.6069820475  -0.9114922527
 H           1.0  -0.2860493851  -1.5207239795   0.9320052421
 $END

