 $BASIS GBASIS=STO NGAUSS=3 $END
 $CONTRL SCFTYP=UHF RUNTYP=ENERGY DFTTYP=SVWN ICHARG=0 MULT=2 $END
 $DATA 
Title
C1
H    1.0     0.   0.  0.0
 $END
