INCAR created by Atomic Simulation Environment
 LWAVE = .FALSE.
 ENCUT = 350
 SIGMA = 0.1
 LCHARG = .FALSE.
 ISMEAR = 1
