 C  O 
 1.0000000000000000
    10.0000000000000000    0.0000000000000000    0.0000000000000000
     0.0000000000000000   10.0000000000000000    0.0000000000000000
     0.0000000000000000    0.0000000000000000   10.0000000000000000
   1   1
Cartesian
  4.4000000000000004  5.0000000000000000  5.0000000000000000
  5.5999999999999996  5.0000000000000000  5.0000000000000000
