!   File created by the GAMESS Input Deck Generator Plugin for Avogadro
 $BASIS GBASIS=STO NGAUSS=3 $END
 $CONTRL SCFTYP=UHF RUNTYP=ENERGY ICHARG=1 $END
 $DATA 
Title
C1
H     1.0     0.   0.  0.
He    2.0     0.   0.  0.7
 $END
