10 Ang. cell, diagonal orientation      
   10.0000000000000     
     1.0000000000000000    0.0000000000000000    0.0000000000000000
     0.0000000000000000    1.0000000000000000    0.0000000000000000
     0.0000000000000000    0.0000000000000000    1.0000000000000000
   2
Direct
  0.0025743790417645  0.0025743790417645  0.0025743790417645
  0.0667076532610371  0.0667076532610371  0.0667076532610371
 
  0.00000000E+00  0.00000000E+00  0.00000000E+00
  0.00000000E+00  0.00000000E+00  0.00000000E+00
