System = N2
NWRITE = 1     ! print flag
LWAVE  =      .T.  !  write WAVECAR
LCHARG =      .T.  !  write CHGCAR
LVTOT  =      .T.  !  write LOCPOT, local potential

Electronic relaxation
ALGO  = fast     ! 
ISMEAR = 0     ! 0: Gaussian, electron smearing
SIGMA  = 0.005
PREC   = accurate   ! sets cutoff and FFT grid
ISTART = 0
ISPIN  = 1     ! polarization?
EDIFF  = 1e-4

Ionic relaxation
NSW    = 20    ! # of steps in optimization (default 0!)
ISIF   = 0     ! 0: relax ions, 1,2:relax ions,calc stresses, 3:relax ion+cell
IBRION = 2     ! 1: quasi-NR, 2:CG algorithm for ions
NFREE  = 10    ! number of DIIS vectors to save
POTIM  = 0.1   ! reduce trial step in optimization
EDIFFG = -0.05 ! convergence criterion

Parallelization options
LPLANE = .T.
NPAR  = 1
NSIM = 10
