10 Ang. cell, diagonal orientation
 10.
 1.0 0.0 0.0
 0.0 1.0 0.0
 0.0 0.0 1.0
2
cartesian
     0. 0. 0.
0.0692820323028 0.0692820323028 0.0692820323028  
