2x2x2 title card
0
Monkhorst-Pack
2  2  2
0. 0. 0.
