 $BASIS GBASIS=STO NGAUSS=3 $END
 $CONTRL SCFTYP=RHF RUNTYP=ENERGY DFTTYP=SVWN ICHARG=1 MULT=1 $END
 $DATA 
Title
C1
H     1.0     0.   0.  0.
He    2.0     0.   0.  4.0
 $END
