Pure FCC metal                          
    3.600000000000000     
     1.0101434597378190    0.0000000000000000    0.0000000000000000
     0.0000000000000000    1.0101434597378190    0.0000000000000000
     0.0000000000000000    0.0000000000000000    1.0101434597378190
   4
Direct
  0.0000000000000000  0.0000000000000000  0.0000000000000000
  0.5000000000000000  0.5000000000000000  0.0000000000000000
  0.5000000000000000  0.0000000000000000  0.5000000000000000
  0.0000000000000000  0.5000000000000000  0.5000000000000000

  0.00000000E+00  0.00000000E+00  0.00000000E+00
  0.00000000E+00  0.00000000E+00  0.00000000E+00
  0.00000000E+00  0.00000000E+00  0.00000000E+00
  0.00000000E+00  0.00000000E+00  0.00000000E+00
