!   File created by the GAMESS Input Deck Generator Plugin for Avogadro
 $BASIS GBASIS=PC1 $END 
 $CONTRL COORD=ZMT SCFTYP=ROHF ISPHER=1 RUNTYP=OPTIMIZE MULT=2 DFTTYP=PBE $END

 $DATA 
Title
Cnv 2

N    
O 1 rso 
O 1 rso 2 ang

rso = 1.20
ang = 132
 $END

