 $BASIS GBASIS=PCseg-1 $END
 $CONTRL SCFTYP=RHF RUNTYP=ENERGY DFTTYP=PBE ICHARG=0 MULT=1 ISPHER=1 $END
 $DATA 
Title
C1
He    2.0     0.   0.  0.
He    2.0     0.   0.  1.4
 $END
